proyfinal/src/viki/013/experimentInOfficeAgust.take6.output/b793985a-8eb2-4bc5-b796-305f3a95cf9d.als.dat
{'cnf.clauses': '118081',
 'cnf.totvars': '69608',
 'conflict literals': '5',
 'conflicts': '5',
 'decisions': '4617',
 'memused.mb': '14.70',
 'outcome': 'UNSAT',
 'propagations': '27711',
 'restarts': '1',
 'solver.msecs': 34,
 'task.msecs': 82}
