proyfinal/src/viki/013/experimentInOfficeAgust.take6.output/b793985a-8eb2-4bc5-b796-305f3a95cf9d.als.out
Reading from standard input... Use '--help' for help.
============================[ Problem Statistics ]=============================
|                                                                             |
|  Number of variables:         69608                                         |
|  Number of clauses:          118081                                         |
|  Parse time:                   0.03 s                                       |
|                                                                             |
============================[ Search Statistics ]==============================
| Conflicts |          ORIGINAL         |          LEARNT          | Progress |
|           |    Vars  Clauses Literals |    Limit  Clauses Lit/Cl |          |
===============================================================================
===============================================================================
restarts              : 1
conflicts             : 5              (144 /sec)
decisions             : 4617           (0.00 % random) (132863 /sec)
propagations          : 27711          (797439 /sec)
conflict literals     : 5              (0.00 % deleted)
Memory used           : 14.70 MB
CPU time              : 0.03475 s

UNSATISFIABLE
